<instance format="XCSP3" type="CSP">
  <constraints>
    <allDifferent id="c1">
      x1 x2 x3 x4 x5
    </allDifferent>
    <allDifferent id="c2">
      <list> y[] </list>
      <except> 0 </except>
    </allDifferent>
  </constraints>
</instance>
